NAME : rnd2_20.tsp
TYPE : TSP
DIMENSION : 20
EDGE_WEIGHT_TYPE : EUC_2D
NODE_COORD_SECTION
0 824 686
1 430 818
2 502 345
3 534 97
4 382 115
5 837 322
6 46 199
7 932 811
8 806 183
9 642 71
10 586 167
11 94 881
12 990 976
13 182 879
14 787 192
15 33 812
16 32 152
17 639 127
18 156 414
19 137 917
